14 73
1 2 0
1 3 0
1 4 1
1 5 1
1 6 0
1 7 1
1 8 0
1 9 1
1 10 1
1 11 1
1 12 1
1 13 1
1 14 1
2 3 1
2 4 1
2 5 1
2 6 1
2 7 1
2 8 1
2 9 1
2 10 1
2 11 1
2 12 1
2 13 1
2 14 1
3 4 0
3 5 1
3 6 0
3 7 1
3 8 1
3 9 1
3 10 1
3 11 1
3 12 1
3 13 1
3 14 1
4 5 1
4 6 1
4 7 1
4 8 1
4 9 1
4 10 0
4 11 1
4 12 1
4 13 1
4 14 1
5 6 1
5 7 0
5 8 1
5 9 1
5 10 1
5 11 0
5 12 0
5 13 1
5 14 1
6 7 1
6 8 1
6 9 1
6 10 1
6 11 1
6 12 0
6 13 1
6 14 1
7 8 1
7 9 1
7 10 1
7 11 1
7 12 1
7 13 1
7 14 1
8 9 1
8 10 0
8 11 1
8 12 0
8 13 1
8 14 1
9 10 0
9 11 1
9 12 1
9 13 1
9 14 1
10 11 0
10 12 1
10 13 0
10 14 1
11 12 1
11 13 1
11 14 0
12 13 0
12 14 1
13 14 1
